solution status: optimal solution found
objective value:                     155280.478902519
d11(0,0)                                            1 	(obj:0)
d11(1,1)                                            1 	(obj:0)
d11(1,2)                                            1 	(obj:0)
d11(2,4)                                            1 	(obj:0)
d11(2,7)                                            1 	(obj:0)
d11(2,10)                                           1 	(obj:0)
d11(3,13)                                           1 	(obj:0)
d11(3,14)                                           1 	(obj:0)
d11(3,15)                                           1 	(obj:0)
d11(3,16)                                           1 	(obj:0)
d11(3,17)                                           1 	(obj:0)
d11(3,19)                                           1 	(obj:0)
d11(3,20)                                           1 	(obj:0)
d11(3,21)                                           1 	(obj:0)
d11(3,22)                                           1 	(obj:0)
d11(3,23)                                           1 	(obj:0)
d11(3,24)                                           1 	(obj:0)
d11(3,25)                                           1 	(obj:0)
d11(3,26)                                           1 	(obj:0)
d11(3,27)                                           1 	(obj:0)
d11(3,28)                                           1 	(obj:0)
d11(3,29)                                           1 	(obj:0)
d11(3,30)                                           1 	(obj:0)
d11(3,31)                                           1 	(obj:0)
d11(3,32)                                           1 	(obj:0)
d11(3,33)                                           1 	(obj:0)
d11(3,34)                                           1 	(obj:0)
d11(3,35)                                           1 	(obj:0)
d11(3,36)                                           1 	(obj:0)
d11(3,37)                                           1 	(obj:0)
d11(3,38)                                           1 	(obj:0)
d11(3,39)                                           1 	(obj:0)
d11(4,40)                                           1 	(obj:0)
d11(4,41)                                           1 	(obj:0)
d11(4,43)                                           1 	(obj:0)
d11(4,44)                                           1 	(obj:0)
d11(4,46)                                           1 	(obj:0)
d11(4,47)                                           1 	(obj:0)
d11(4,49)                                           1 	(obj:0)
d11(4,50)                                           1 	(obj:0)
d11(4,52)                                           1 	(obj:0)
d11(4,53)                                           1 	(obj:0)
d11(4,55)                                           1 	(obj:0)
d11(4,56)                                           1 	(obj:0)
d11(4,58)                                           1 	(obj:0)
d11(4,59)                                           1 	(obj:0)
d11(4,61)                                           1 	(obj:0)
d11(4,62)                                           1 	(obj:0)
d11(4,64)                                           1 	(obj:0)
d11(4,65)                                           1 	(obj:0)
d11(4,67)                                           1 	(obj:0)
d11(4,68)                                           1 	(obj:0)
d11(4,70)                                           1 	(obj:0)
d11(4,71)                                           1 	(obj:0)
d11(4,73)                                           1 	(obj:0)
d11(4,74)                                           1 	(obj:0)
d11(4,76)                                           1 	(obj:0)
d11(4,77)                                           1 	(obj:0)
d11(4,79)                                           1 	(obj:0)
d11(4,80)                                           1 	(obj:0)
d11(4,82)                                           1 	(obj:0)
d11(4,83)                                           1 	(obj:0)
d11(4,85)                                           1 	(obj:0)
d11(4,86)                                           1 	(obj:0)
d11(4,88)                                           1 	(obj:0)
d11(4,89)                                           1 	(obj:0)
d11(4,91)                                           1 	(obj:0)
d11(4,92)                                           1 	(obj:0)
d11(4,94)                                           1 	(obj:0)
d11(4,95)                                           1 	(obj:0)
d11(4,97)                                           1 	(obj:0)
d11(4,98)                                           1 	(obj:0)
d11(4,100)                                          1 	(obj:0)
d11(4,101)                                          1 	(obj:0)
d11(4,103)                                          1 	(obj:0)
d11(4,104)                                          1 	(obj:0)
d11(4,106)                                          1 	(obj:0)
d11(4,107)                                          1 	(obj:0)
d11(4,109)                                          1 	(obj:0)
d11(4,110)                                          1 	(obj:0)
d11(4,112)                                          1 	(obj:0)
d11(4,113)                                          1 	(obj:0)
d11(4,115)                                          1 	(obj:0)
d11(4,116)                                          1 	(obj:0)
d11(4,118)                                          1 	(obj:0)
d11(4,119)                                          1 	(obj:0)
d12(2,5)                                            1 	(obj:0)
d12(2,6)                                            1 	(obj:0)
d12(2,8)                                            1 	(obj:0)
d12(2,9)                                            1 	(obj:0)
d12(2,11)                                           1 	(obj:0)
d12(2,12)                                           1 	(obj:0)
d12(4,42)                                           1 	(obj:0)
d12(4,45)                                           1 	(obj:0)
d12(4,48)                                           1 	(obj:0)
d12(4,51)                                           1 	(obj:0)
d12(4,54)                                           1 	(obj:0)
d12(4,57)                                           1 	(obj:0)
d12(4,60)                                           1 	(obj:0)
d12(4,63)                                           1 	(obj:0)
d12(4,66)                                           1 	(obj:0)
d12(4,69)                                           1 	(obj:0)
d12(4,72)                                           1 	(obj:0)
d12(4,75)                                           1 	(obj:0)
d12(4,78)                                           1 	(obj:0)
d12(4,81)                                           1 	(obj:0)
d12(4,84)                                           1 	(obj:0)
d12(4,87)                                           1 	(obj:0)
d12(4,90)                                           1 	(obj:0)
d12(4,93)                                           1 	(obj:0)
d12(4,96)                                           1 	(obj:0)
d12(4,99)                                           1 	(obj:0)
d12(4,102)                                          1 	(obj:0)
d12(4,105)                                          1 	(obj:0)
d12(4,108)                                          1 	(obj:0)
d12(4,111)                                          1 	(obj:0)
d12(4,114)                                          1 	(obj:0)
d12(4,117)                                          1 	(obj:0)
d12(4,120)                                          1 	(obj:0)
d21(3,13)                                           1 	(obj:0)
d21(3,14)                                           1 	(obj:0)
d21(3,16)                                           1 	(obj:0)
d21(3,22)                                           1 	(obj:0)
d21(4,40)                                           1 	(obj:0)
d21(4,41)                                           1 	(obj:0)
d21(4,42)                                           1 	(obj:0)
d21(4,43)                                           1 	(obj:0)
d21(4,44)                                           1 	(obj:0)
d21(4,45)                                           1 	(obj:0)
d21(4,46)                                           1 	(obj:0)
d21(4,47)                                           1 	(obj:0)
d21(4,49)                                           1 	(obj:0)
d21(4,50)                                           1 	(obj:0)
d21(4,51)                                           1 	(obj:0)
d21(4,52)                                           1 	(obj:0)
d21(4,53)                                           1 	(obj:0)
d21(4,54)                                           1 	(obj:0)
d21(4,55)                                           1 	(obj:0)
d21(4,58)                                           1 	(obj:0)
d21(4,59)                                           1 	(obj:0)
d21(4,60)                                           1 	(obj:0)
d21(4,61)                                           1 	(obj:0)
d21(4,62)                                           1 	(obj:0)
d21(4,67)                                           1 	(obj:0)
d21(4,68)                                           1 	(obj:0)
d21(4,69)                                           1 	(obj:0)
d21(4,70)                                           1 	(obj:0)
d21(4,71)                                           1 	(obj:0)
d21(4,73)                                           1 	(obj:0)
d21(4,76)                                           1 	(obj:0)
d21(4,77)                                           1 	(obj:0)
d21(4,78)                                           1 	(obj:0)
d21(4,79)                                           1 	(obj:0)
d21(4,80)                                           1 	(obj:0)
d21(4,85)                                           1 	(obj:0)
d21(4,86)                                           1 	(obj:0)
d21(4,88)                                           1 	(obj:0)
d21(4,94)                                           1 	(obj:0)
d21(4,95)                                           1 	(obj:0)
d21(4,97)                                           1 	(obj:0)
d21(4,103)                                          1 	(obj:0)
y2(4,102)                            321.582031367154 	(obj:0)
y2(4,105)                            321.582031367154 	(obj:0)
y2(4,108)                            321.582031367154 	(obj:0)
y2(4,111)                            321.582031367154 	(obj:0)
y2(4,114)                            321.582031367154 	(obj:0)
y2(4,117)                            321.582031367154 	(obj:0)
y2(4,120)                            321.582031367154 	(obj:0)
STE(1,1)                             5030.78179333333 	(obj:0)
STE(0,0)                                         7875 	(obj:0)
STE(1,2)                             6027.54779666662 	(obj:0)
STE(1,3)                                         7245 	(obj:0)
STE(2,4)                             4325.18327020129 	(obj:0)
STE(2,5)                             5092.16855403074 	(obj:0)
STE(2,6)                             6133.09018788079 	(obj:0)
STE(2,7)                             5321.94927353458 	(obj:0)
STE(2,8)                             6088.93455736404 	(obj:0)
STE(2,9)                             7129.85619121408 	(obj:0)
STE(2,10)                            6539.40147686795 	(obj:0)
STE(2,11)                            7306.38676069742 	(obj:0)
STE(2,12)                            8347.30839454746 	(obj:0)
STE(3,13)                            1480.96506353462 	(obj:0)
STE(3,14)                            2477.73106686791 	(obj:0)
STE(3,15)                            3695.18327020129 	(obj:0)
STE(3,16)                            2247.95034736407 	(obj:0)
STE(3,17)                            3244.71635069736 	(obj:0)
STE(3,18)                            4462.16855403074 	(obj:0)
STE(3,19)                            3288.87198121412 	(obj:0)
STE(3,20)                            4285.63798454741 	(obj:0)
STE(3,21)                            5503.09018788079 	(obj:0)
STE(3,22)                            2477.73106686791 	(obj:0)
STE(3,23)                             3474.4970702012 	(obj:0)
STE(3,24)                            4691.94927353458 	(obj:0)
STE(3,25)                            3244.71635069737 	(obj:0)
STE(3,26)                            4241.48235403067 	(obj:0)
STE(3,27)                            5458.93455736404 	(obj:0)
STE(3,28)                            4285.63798454741 	(obj:0)
STE(3,29)                             5282.4039878807 	(obj:0)
STE(3,30)                            6499.85619121408 	(obj:0)
STE(3,31)                            3695.18327020129 	(obj:0)
STE(3,32)                            4691.94927353458 	(obj:0)
STE(3,33)                            5909.40147686795 	(obj:0)
STE(3,34)                            4462.16855403075 	(obj:0)
STE(3,35)                            5458.93455736404 	(obj:0)
STE(3,36)                            6676.38676069742 	(obj:0)
STE(3,37)                            5503.09018788079 	(obj:0)
STE(3,38)                            6499.85619121408 	(obj:0)
STE(3,39)                            7717.30839454746 	(obj:0)
STE(4,40)                            -827.96949382942 	(obj:0)
STE(4,41)                            168.796509503871 	(obj:0)
STE(4,42)                            1156.46799333342 	(obj:0)
STE(4,43)                            168.796509503871 	(obj:0)
STE(4,44)                            1165.56251283716 	(obj:0)
STE(4,45)                            2153.23399666671 	(obj:0)
STE(4,46)                            1386.24871283725 	(obj:0)
STE(4,47)                            2383.01471617054 	(obj:0)
STE(4,48)                            3370.68620000009 	(obj:0)
STE(4,49)                           -60.9842099999689 	(obj:0)
STE(4,50)                            935.781793333322 	(obj:0)
STE(4,51)                            1923.45327716287 	(obj:0)
STE(4,52)                            935.781793333322 	(obj:0)
STE(4,53)                            1932.54779666661 	(obj:0)
STE(4,54)                            2920.21928049616 	(obj:0)
STE(4,55)                             2153.2339966667 	(obj:0)
STE(4,56)                            3149.99999999999 	(obj:0)
STE(4,57)                            4137.67148382954 	(obj:0)
STE(4,58)                            979.937423850081 	(obj:0)
STE(4,59)                            1976.70342718337 	(obj:0)
STE(4,60)                            2964.37491101292 	(obj:0)
STE(4,61)                            1976.70342718337 	(obj:0)
STE(4,62)                            2973.46943051667 	(obj:0)
STE(4,63)                            3961.14091434621 	(obj:0)
STE(4,64)                            3194.15563051675 	(obj:0)
STE(4,65)                            4190.92163385004 	(obj:0)
STE(4,66)                            5178.59311767959 	(obj:0)
STE(4,67)                            168.796509503871 	(obj:0)
STE(4,68)                            1165.56251283716 	(obj:0)
STE(4,69)                            2153.23399666671 	(obj:0)
STE(4,70)                            1165.56251283716 	(obj:0)
STE(4,71)                            2162.32851617045 	(obj:0)
STE(4,72)                                        3150 	(obj:0)
STE(4,73)                            2383.01471617054 	(obj:0)
STE(4,74)                            3379.78071950383 	(obj:0)
STE(4,75)                            4367.45220333338 	(obj:0)
STE(4,76)                            935.781793333331 	(obj:0)
STE(4,77)                            1932.54779666662 	(obj:0)
STE(4,78)                            2920.21928049617 	(obj:0)
STE(4,79)                            1932.54779666662 	(obj:0)
STE(4,80)                            2929.31379999991 	(obj:0)
STE(4,81)                            3916.98528382946 	(obj:0)
STE(4,82)                                        3150 	(obj:0)
STE(4,83)                            4146.76600333329 	(obj:0)
STE(4,84)                            5134.43748716284 	(obj:0)
STE(4,85)                            1976.70342718337 	(obj:0)
STE(4,86)                            2973.46943051666 	(obj:0)
STE(4,87)                            3961.14091434621 	(obj:0)
STE(4,88)                            2973.46943051666 	(obj:0)
STE(4,89)                            3970.23543384995 	(obj:0)
STE(4,90)                             4957.9069176795 	(obj:0)
STE(4,91)                            4190.92163385004 	(obj:0)
STE(4,92)                            5187.68763718333 	(obj:0)
STE(4,93)                            6175.35912101288 	(obj:0)
STE(4,94)                            1386.24871283724 	(obj:0)
STE(4,95)                            2383.01471617053 	(obj:0)
STE(4,96)                            3370.68620000008 	(obj:0)
STE(4,97)                            2383.01471617053 	(obj:0)
STE(4,98)                            3379.78071950382 	(obj:0)
STE(4,99)                            4367.45220333337 	(obj:0)
STE(4,100)                           3600.46691950391 	(obj:0)
STE(4,101)                            4597.2329228372 	(obj:0)
STE(4,102)                           5584.90440666675 	(obj:0)
STE(4,103)                           2153.23399666671 	(obj:0)
STE(4,104)                                       3150 	(obj:0)
STE(4,105)                           4137.67148382955 	(obj:0)
STE(4,106)                                       3150 	(obj:0)
STE(4,107)                           4146.76600333329 	(obj:0)
STE(4,108)                           5134.43748716284 	(obj:0)
STE(4,109)                           4367.45220333338 	(obj:0)
STE(4,110)                           5364.21820666667 	(obj:0)
STE(4,111)                           6351.88969049622 	(obj:0)
STE(4,112)                           3194.15563051675 	(obj:0)
STE(4,113)                           4190.92163385004 	(obj:0)
STE(4,114)                           5178.59311767959 	(obj:0)
STE(4,115)                           4190.92163385004 	(obj:0)
STE(4,116)                           5187.68763718333 	(obj:0)
STE(4,117)                           6175.35912101288 	(obj:0)
STE(4,118)                           5408.37383718342 	(obj:0)
STE(4,119)                           6405.13984051671 	(obj:0)
STE(4,120)                           7392.81132434625 	(obj:0)
y1(4,100)                            1511.04110162764 	(obj:0)
y1(4,101)                            613.951698627677 	(obj:0)
y1(4,103)                            1511.04110162764 	(obj:0)
y1(4,104)                            613.951698627677 	(obj:0)
y1(4,106)                            1511.04110162764 	(obj:0)
y1(4,107)                            613.951698627677 	(obj:0)
y1(4,109)                            1511.04110162764 	(obj:0)
y1(4,110)                            613.951698627677 	(obj:0)
y1(4,112)                            1511.04110162764 	(obj:0)
y1(4,113)                            613.951698627677 	(obj:0)
y1(4,115)                            1511.04110162764 	(obj:0)
y1(4,116)                            613.951698627677 	(obj:0)
y1(4,118)                            1511.04110162764 	(obj:0)
y1(4,119)                            613.951698627677 	(obj:0)
AVE(3)                                3399.3204933139 	(obj:0)
AVE(4)                               3353.21046544222 	(obj:0)
y2(4,99)                             321.582031367154 	(obj:0)
WG(2)                                 2531.8798651213 	(obj:10)
WG(3)                                 3399.3204933139 	(obj:10)
WG(4)                                3353.21046544222 	(obj:10)
BG(1)                                4495.91835000003 	(obj:10)
BG(3)                                1096.59785668609 	(obj:10)
BG(4)                                651.120859688008 	(obj:10)
WB(1)                                3134.60043707461 	(obj:0)
AVE(1)                               3134.60043707458 	(obj:0)
WB(2)                                 794.57184354513 	(obj:0)
AVE(2)                               3326.45170866643 	(obj:0)
y1(1,1)                                   1992.796386 	(obj:0)
y1(1,2)                              1095.70698300004 	(obj:0)
y1(2,4)                              68.0386708188364 	(obj:0)
y1(2,7)                              68.0386708188365 	(obj:0)
y1(2,10)                             68.0386708188418 	(obj:0)
y1(3,13)                                  1992.796386 	(obj:0)
y1(3,14)                             1095.70698300004 	(obj:0)
y1(3,16)                                  1992.796386 	(obj:0)
y1(3,17)                             1095.70698300004 	(obj:0)
y1(3,19)                                  1992.796386 	(obj:0)
y1(3,20)                             1095.70698300004 	(obj:0)
y1(3,22)                                  1992.796386 	(obj:0)
y1(3,23)                             1095.70698300004 	(obj:0)
y1(3,25)                                  1992.796386 	(obj:0)
y1(3,26)                             1095.70698300004 	(obj:0)
y1(3,28)                                  1992.796386 	(obj:0)
y1(3,29)                             1095.70698300004 	(obj:0)
y1(3,31)                                  1992.796386 	(obj:0)
y1(3,32)                             1095.70698300004 	(obj:0)
y1(3,34)                                  1992.796386 	(obj:0)
y1(3,35)                             1095.70698300004 	(obj:0)
y1(3,37)                                  1992.796386 	(obj:0)
y1(3,38)                             1095.70698300004 	(obj:0)
y1(4,40)                             1511.04110162764 	(obj:0)
y1(4,41)                             613.951698627677 	(obj:0)
y1(4,43)                             1511.04110162764 	(obj:0)
y1(4,44)                             613.951698627677 	(obj:0)
y1(4,46)                             1511.04110162764 	(obj:0)
y1(4,47)                             613.951698627677 	(obj:0)
y1(4,49)                             1511.04110162764 	(obj:0)
y1(4,50)                             613.951698627677 	(obj:0)
y1(4,52)                             1511.04110162764 	(obj:0)
y1(4,53)                             613.951698627677 	(obj:0)
y1(4,55)                             1511.04110162764 	(obj:0)
y1(4,56)                             613.951698627677 	(obj:0)
y1(4,58)                             1511.04110162764 	(obj:0)
y1(4,59)                             613.951698627677 	(obj:0)
y1(4,61)                             1511.04110162764 	(obj:0)
y1(4,62)                             613.951698627672 	(obj:0)
y1(4,64)                             1511.04110162764 	(obj:0)
y1(4,65)                             613.951698627677 	(obj:0)
y1(4,67)                             1511.04110162764 	(obj:0)
y1(4,68)                             613.951698627677 	(obj:0)
y1(4,70)                             1511.04110162764 	(obj:0)
y1(4,71)                             613.951698627677 	(obj:0)
y1(4,73)                             1511.04110162764 	(obj:0)
y1(4,74)                             613.951698627677 	(obj:0)
y1(4,76)                             1511.04110162764 	(obj:0)
y1(4,77)                             613.951698627677 	(obj:0)
y1(4,79)                             1511.04110162764 	(obj:0)
y1(4,80)                             613.951698627677 	(obj:0)
y1(4,82)                             1511.04110162764 	(obj:0)
y1(4,83)                             613.951698627677 	(obj:0)
y1(4,85)                             1511.04110162764 	(obj:0)
y1(4,86)                             613.951698627677 	(obj:0)
y1(4,88)                             1511.04110162764 	(obj:0)
y1(4,89)                             613.951698627677 	(obj:0)
y1(4,91)                             1511.04110162764 	(obj:0)
y1(4,92)                             613.951698627677 	(obj:0)
y1(4,94)                             1511.04110162764 	(obj:0)
y1(4,95)                             613.951698627677 	(obj:0)
y1(4,97)                             1511.04110162764 	(obj:0)
y1(4,98)                             613.951698627677 	(obj:0)
y2(2,5)                              727.775537576221 	(obj:0)
y2(2,6)                              1823.48252057627 	(obj:0)
y2(2,8)                              727.775537576233 	(obj:0)
y2(2,9)                              1823.48252057627 	(obj:0)
y2(2,11)                             727.775537576232 	(obj:0)
y2(2,12)                             1823.48252057627 	(obj:0)
y2(4,42)                             321.582031367154 	(obj:0)
y2(4,45)                             321.582031367154 	(obj:0)
y2(4,48)                             321.582031367154 	(obj:0)
y2(4,51)                             321.582031367154 	(obj:0)
y2(4,54)                             321.582031367154 	(obj:0)
y2(4,57)                             321.582031367154 	(obj:0)
y2(4,60)                             321.582031367154 	(obj:0)
y2(4,63)                             321.582031367154 	(obj:0)
y2(4,66)                             321.582031367154 	(obj:0)
y2(4,69)                             321.582031367154 	(obj:0)
y2(4,72)                             321.582031367154 	(obj:0)
y2(4,75)                             321.582031367154 	(obj:0)
y2(4,78)                             321.582031367154 	(obj:0)
y2(4,81)                             321.582031367154 	(obj:0)
y2(4,84)                             321.582031367154 	(obj:0)
y2(4,87)                             321.582031367154 	(obj:0)
y2(4,90)                             321.582031367154 	(obj:0)
y2(4,93)                             321.582031367154 	(obj:0)
y2(4,96)                             321.582031367154 	(obj:0)
